certificates/rado_a14_c32_N49.cnf
c Rad2 upper bound instance: x1 + 14*x2 - x3 = 32, interval [1,49]
p cnf 49 302
1 3 11 0
-1 -3 -11 0
1 4 25 0
-1 -4 -25 0
1 5 39 0
-1 -5 -39 0
2 3 12 0
-2 -3 -12 0
2 4 26 0
-2 -4 -26 0
2 5 40 0
-2 -5 -40 0
3 13 0
-3 -13 0
3 4 27 0
-3 -4 -27 0
3 5 41 0
-3 -5 -41 0
3 4 14 0
-3 -4 -14 0
4 28 0
-4 -28 0
4 5 42 0
-4 -5 -42 0
1 2 5 0
-1 -2 -5 0
3 5 15 0
-3 -5 -15 0
4 5 29 0
-4 -5 -29 0
5 43 0
-5 -43 0
2 6 0
-2 -6 0
3 6 16 0
-3 -6 -16 0
4 6 30 0
-4 -6 -30 0
5 6 44 0
-5 -6 -44 0
2 3 7 0
-2 -3 -7 0
3 7 17 0
-3 -7 -17 0
4 7 31 0
-4 -7 -31 0
5 7 45 0
-5 -7 -45 0
2 4 8 0
-2 -4 -8 0
3 8 18 0
-3 -8 -18 0
4 8 32 0
-4 -8 -32 0
5 8 46 0
-5 -8 -46 0
2 5 9 0
-2 -5 -9 0
3 9 19 0
-3 -9 -19 0
4 9 33 0
-4 -9 -33 0
5 9 47 0
-5 -9 -47 0
2 6 10 0
-2 -6 -10 0
3 10 20 0
-3 -10 -20 0
4 10 34 0
-4 -10 -34 0
5 10 48 0
-5 -10 -48 0
2 7 11 0
-2 -7 -11 0
3 11 21 0
-3 -11 -21 0
4 11 35 0
-4 -11 -35 0
5 11 49 0
-5 -11 -49 0
2 8 12 0
-2 -8 -12 0
3 12 22 0
-3 -12 -22 0
4 12 36 0
-4 -12 -36 0
2 9 13 0
-2 -9 -13 0
3 13 23 0
-3 -13 -23 0
4 13 37 0
-4 -13 -37 0
2 10 14 0
-2 -10 -14 0
3 14 24 0
-3 -14 -24 0
4 14 38 0
-4 -14 -38 0
2 11 15 0
-2 -11 -15 0
3 15 25 0
-3 -15 -25 0
4 15 39 0
-4 -15 -39 0
2 12 16 0
-2 -12 -16 0
3 16 26 0
-3 -16 -26 0
4 16 40 0
-4 -16 -40 0
2 13 17 0
-2 -13 -17 0
3 17 27 0
-3 -17 -27 0
4 17 41 0
-4 -17 -41 0
2 14 18 0
-2 -14 -18 0
3 18 28 0
-3 -18 -28 0
4 18 42 0
-4 -18 -42 0
1 19 0
-1 -19 0
2 15 19 0
-2 -15 -19 0
3 19 29 0
-3 -19 -29 0
4 19 43 0
-4 -19 -43 0
1 2 20 0
-1 -2 -20 0
2 16 20 0
-2 -16 -20 0
3 20 30 0
-3 -20 -30 0
4 20 44 0
-4 -20 -44 0
1 3 21 0
-1 -3 -21 0
2 17 21 0
-2 -17 -21 0
3 21 31 0
-3 -21 -31 0
4 21 45 0
-4 -21 -45 0
1 4 22 0
-1 -4 -22 0
2 18 22 0
-2 -18 -22 0
3 22 32 0
-3 -22 -32 0
4 22 46 0
-4 -22 -46 0
1 5 23 0
-1 -5 -23 0
2 19 23 0
-2 -19 -23 0
3 23 33 0
-3 -23 -33 0
4 23 47 0
-4 -23 -47 0
1 6 24 0
-1 -6 -24 0
2 20 24 0
-2 -20 -24 0
3 24 34 0
-3 -24 -34 0
4 24 48 0
-4 -24 -48 0
1 7 25 0
-1 -7 -25 0
2 21 25 0
-2 -21 -25 0
3 25 35 0
-3 -25 -35 0
4 25 49 0
-4 -25 -49 0
1 8 26 0
-1 -8 -26 0
2 22 26 0
-2 -22 -26 0
3 26 36 0
-3 -26 -36 0
1 9 27 0
-1 -9 -27 0
2 23 27 0
-2 -23 -27 0
3 27 37 0
-3 -27 -37 0
1 10 28 0
-1 -10 -28 0
2 24 28 0
-2 -24 -28 0
3 28 38 0
-3 -28 -38 0
1 11 29 0
-1 -11 -29 0
2 25 29 0
-2 -25 -29 0
3 29 39 0
-3 -29 -39 0
1 12 30 0
-1 -12 -30 0
2 26 30 0
-2 -26 -30 0
3 30 40 0
-3 -30 -40 0
1 13 31 0
-1 -13 -31 0
2 27 31 0
-2 -27 -31 0
3 31 41 0
-3 -31 -41 0
1 14 32 0
-1 -14 -32 0
2 28 32 0
-2 -28 -32 0
3 32 42 0
-3 -32 -42 0
1 15 33 0
-1 -15 -33 0
2 29 33 0
-2 -29 -33 0
3 33 43 0
-3 -33 -43 0
1 16 34 0
-1 -16 -34 0
2 30 34 0
-2 -30 -34 0
3 34 44 0
-3 -34 -44 0
1 17 35 0
-1 -17 -35 0
2 31 35 0
-2 -31 -35 0
3 35 45 0
-3 -35 -45 0
1 18 36 0
-1 -18 -36 0
2 32 36 0
-2 -32 -36 0
3 36 46 0
-3 -36 -46 0
1 19 37 0
-1 -19 -37 0
2 33 37 0
-2 -33 -37 0
3 37 47 0
-3 -37 -47 0
1 20 38 0
-1 -20 -38 0
2 34 38 0
-2 -34 -38 0
3 38 48 0
-3 -38 -48 0
1 21 39 0
-1 -21 -39 0
2 35 39 0
-2 -35 -39 0
3 39 49 0
-3 -39 -49 0
1 22 40 0
-1 -22 -40 0
2 36 40 0
-2 -36 -40 0
1 23 41 0
-1 -23 -41 0
2 37 41 0
-2 -37 -41 0
1 24 42 0
-1 -24 -42 0
2 38 42 0
-2 -38 -42 0
1 25 43 0
-1 -25 -43 0
2 39 43 0
-2 -39 -43 0
1 26 44 0
-1 -26 -44 0
2 40 44 0
-2 -40 -44 0
1 27 45 0
-1 -27 -45 0
2 41 45 0
-2 -41 -45 0
1 28 46 0
-1 -28 -46 0
2 42 46 0
-2 -42 -46 0
1 29 47 0
-1 -29 -47 0
2 43 47 0
-2 -43 -47 0
1 30 48 0
-1 -30 -48 0
2 44 48 0
-2 -44 -48 0
1 31 49 0
-1 -31 -49 0
2 45 49 0
-2 -45 -49 0
