certificates/rado_a14_c32_N49.drat
-44 2 0
26 2 -48 0
-1 -45 -49 0
-45 -49 0
d -45 -2 -49 0
1 2 -49 0
2 -49 0
d 1 2 -49 0
44 -2 0
1 -2 0
-49 0
-1 -2 0
d -5 -1 -2 0
-2 0
6 0
45 0
-44 0
48 0
40 0
26 0
-1 0
19 0
31 0
5 0
20 0
-43 0
-10 0
-7 0
47 0
39 0
25 0
14 0
28 0
11 0
3 0
-9 0
-29 0
-35 0
-4 0
-38 0
-18 0
-13 0
-37 0
-16 0
-30 0
-36 0
-41 0
-15 0
-24 0
-21 0
0
